Solution in this episode: [442, 494, 272, 409, 340, 239, 459, 307, 170, 205, 391, 35, 255, 154, 187, 69, 357, 52, 323, 290, 374, 18, 221, 477, 136, 1, 425, 103, 119, 86, 445, 495, 276, 410, 449, 502, 342, 241, 461, 308, 277, 417, 452, 246, 173, 207, 453, 458, 394, 36, 280, 505, 346, 180, 508, 251, 259, 182, 252, 155, 189, 71, 469, 209, 470, 185, 349, 473, 360, 54, 419, 262, 327, 291, 284, 213, 316, 397, 377, 19, 319, 288, 423, 351, 223, 479, 322, 265, 42, 76, 268, 329, 47, 401, 139, 4, 80, 270, 429, 105, 163, 367, 82, 354, 215, 122, 88, 404, 5, 192, 61, 332, 218, 335, 48, 10, 165, 299, 381, 338, 431, 368, 406, 371, 27, 484, 383, 435, 169, 196, 63, 230, 146, 489, 490, 385, 389, 65, 13, 112, 15, 198, 300, 125, 203, 30, 95, 33, 128, 232, 305, 437, 235, 132, 441, 148, 135, 151, 113, 117, 98, 101]
